c User generated cnf file
p cnf 11 56
-5 11 2 0 
-8 1 2 0 
-5 4 1 0 
7 -3 10 0 
-8 2 6 0 
-3 8 10 0 
9 -3 1 0 
3 11 -5 0 
1 7 -6 0 
4 -3 7 0 
3 2 -7 0 
-3 6 8 0 
5 10 -5 0 
-4 8 7 0 
5 5 -5 0 
11 -9 8 0 
10 1 -5 0 
-9 1 5 0 
-5 7 1 0 
3 11 -4 0 
6 -10 9 0 
7 8 -11 0 
3 8 -7 0 
11 -4 2 0 
-4 2 1 0 
-6 3 5 0 
-2 9 4 0 
1 -4 3 0 
5 11 -4 0 
-10 5 4 0 
3 -4 8 0 
5 -3 2 0 
4 2 -5 0 
1 6 -8 0 
11 10 -11 0 
-5 9 9 0 
4 4 -9 0 
-7 1 1 0 
6 2 -9 0 
11 -5 2 0 
3 1 -5 0 
1 -5 4 0 
4 -6 11 0 
2 1 -4 0 
-7 9 6 0 
-3 3 7 0 
11 -8 10 0 
10 1 -1 0 
-11 9 10 0 
11 4 -3 0 
11 -6 9 0 
9 10 -11 0 
9 -9 10 0 
6 3 -11 0 
8 -1 10 0 
-4 11 7 0 
